NAME : block_44.400081.tour
COMMENT : Length = 400081
COMMENT : Found by LKH-3 [Keld Helsgaun] Mon Feb  2 23:16:05 2026
TYPE : TOUR
DIMENSION : 115
TOUR_SECTION
115
1
8
16
24
32
40
48
56
65
74
73
64
55
47
39
31
23
15
7
6
14
22
30
38
46
54
63
72
80
71
62
53
45
37
29
21
13
5
4
12
20
28
36
44
52
61
70
79
88
89
97
104
110
111
105
98
90
81
82
91
99
106
112
113
107
100
92
83
84
93
101
108
114
109
102
94
85
76
75
66
57
49
41
33
25
17
9
3
10
18
26
34
42
50
58
67
68
77
86
95
103
96
87
78
69
60
59
51
43
35
27
19
11
2
-1
EOF
